PROBLEM NAME: eil51_n9
KNAPSACK DATA TYPE: uncorrelated
DIMENSION: 9
NUMBER OF ITEMS: 40
CAPACITY OF KNAPSACK: 1602
MIN SPEED: 0.1
MAX SPEED: 1
RENTING RATIO: 10.46
EDGE_WEIGHT_TYPE: CEIL_2D
NODE_COORD_SECTION	(INDEX, X, Y):
1	17	63
2	31	62
3	36	16
4	52	41
5	27	23
6	62	63
7	32	22
8	5	6
9	56	37
ITEMS SECTION	(INDEX, PROFIT, WEIGHT, ASSIGNED NODE NUMBER):
1	997	199	2
2	994	367	2
3	992	421	2
4	931	70	2
5	908	97	2
6	893	984	6
7	874	138	6
8	815	845	6
9	794	995	6
10	791	9	6
11	766	882	4
12	726	98	4
13	720	856	4
14	707	242	4
15	700	72	4
16	667	122	9
17	649	322	9
18	633	299	9
19	617	874	9
20	598	94	9
21	569	107	3
22	544	574	3
23	539	719	3
24	537	122	3
25	506	326	3
26	487	600	7
27	457	43	7
28	446	955	7
29	428	682	7
30	422	252	7
31	419	145	5
32	416	248	5
33	359	901	5
34	334	715	5
35	237	795	5
36	196	529	8
37	131	433	8
38	116	277	8
39	94	485	8
40	7	738	8
